##TITLE=Synthetic RP-HPLC run (CC0)
##JCAMP-DX=5.01
##DATA TYPE=CHROMATOGRAM
##ORIGIN=Peakly samples/data (synthetic)
##OWNER=public domain (CC0)
##XUNITS=MINUTES
##YUNITS=MAU
##XFACTOR=1
##YFACTOR=0.001
##FIRSTX=0
##LASTX=8
##DELTAX=0.02
##NPOINTS=401
##FIRSTY=0.298
##XYDATA=(X++(Y..Y))
0.000 B98rJ3opJ5j5K3oj8K
0.200 B90OJ6j3rJ5j3mJK2j0
0.400 C01jTMoLRmJ3k7J7
0.600 C08k0J2j3L0j0n%KJr
0.800 B96KjK4l4L0j3TRJ9j5
1.000 C04pJ8mj0OMok6J8K
1.200 B99k1K1NTj0TJ7%qJ
1.400 B99K4M6K14N71J168K143L132L596K969J157
1.600 A5319j178k937l603l149k129j194n14k10q4j5
1.800 C06qlPj%Mj0J0Mj8
2.000 B91K7j3mk8L4Mk0J2j7R
2.200 B95NlTMNJ6k9J7nR
2.400 C11j2lj0K3k0L0k5NmL
2.600 B98J6jToj1PNjj4M
2.800 B96J2j1j6J2Rj5J6Prj0
3.000 B91K1K2P8J63L93P86J484K468L778N238
3.200 A4722O402O876O273M422J605q24k377l647m499m882
3.400 B4071m872m485l860l148k406j777j226q14n11l07
3.600 F65j86q8m7j9j4j3LjrJ5
3.800 C06j1K2nqJ0j9jj2K0m
4.000 B98%j8K4j4NJ1j3K4j7J9
4.200 C19k7Qn%NKmJ1lj
4.400 C05j5JJ2J8k4mK2l1pL1
4.600 C08Jnk4J4J2J5j8qkM
4.800 B97pK0rj6L4k3oK6q%
5.000 C08qnjQrj2jK3J1j8
5.200 B96pJ7oj6J9oOM%P
5.400 C14j1LlTkJ3Ll7K9j0
5.600 B96kPrJRJ2k1K5L6L9
5.800 C93Q6J70K82M72P51J135J530K032K489K804
6.000 A2144K983K771K335J543N36n48j526k344k770k966
6.200 A2158k800k477k045j548j123p56m72l06j70p4
6.400 C87l6k8%Ll5RJ1Kk1K
6.600 B94J9j6mj3J0K5j2j5K0r
6.800 B99LkJOk4K2KPk0k
7.000 B92qK0Qk1NJ5jmj0m
7.200 B92PJ7k4J4J1j7J2j4J0j4
7.400 B94lJ0pj0PK3J0j5k0J1
7.600 C00MolNK0k2J4nj9L0
7.800 C18Lj4k4L5Ll1J9j0rj
##END=
